21
13-Citroxanal
C      3.215200    -1.388500     0.000000
C      3.215200    -0.563500     0.000000
C      2.500700    -0.151000     0.000000
C      2.500700     0.674000     0.000000
C      3.215200     1.086500     0.000000
C      3.929600     0.674000     0.000000
C      3.929600    -0.151000     0.000000
C      1.675700     0.674000     0.000000
C      2.088200     1.388500     0.000000
C      1.786300    -0.563500     0.000000
C      1.071800    -0.151000     0.000000
C      0.357100    -0.563500     0.000000
C     -0.357400    -0.151000     0.000000
C     -1.071800    -0.563500     0.000000
C     -1.786300    -0.151000     0.000000
C     -1.786300     0.674000     0.000000
C     -2.500700     1.086500     0.000000
C     -3.215200     0.674000     0.000000
O     -3.929600     1.086500     0.000000
C     -1.071800     1.086500     0.000000
C      0.357100    -1.388500     0.000000