12
5-(4-hydroxyphenyl)pent-3-enoic acid (cis)
O     -2.143400    -0.825000     0.000000
C     -1.428900    -0.412500     0.000000
C     -0.714400    -0.825000     0.000000
C      0.000000    -0.412500     0.000000
C      0.000000     0.412500     0.000000
C     -0.714400     0.825000     0.000000
C     -1.428900     0.412500     0.000000
C      0.714400     0.825000     0.000000
C      1.428900     0.412500     0.000000
C      1.428900    -0.412500     0.000000
O      0.714400    -0.825000     0.000000
O      2.143400    -0.825000     0.000000