12
5-(4-hydroxyphenyl)pent-3-enoic acid (trans)
O     -2.500600    -1.237500     0.000000
C     -1.786100    -0.825000     0.000000
C     -1.786100     0.000000     0.000000
C     -1.071700     0.412500     0.000000
C     -0.357200     0.000000     0.000000
C     -0.357200    -0.825000     0.000000
C     -1.071700    -1.237500     0.000000
C      0.357200     0.412500     0.000000
C      1.071700     0.000000     0.000000
C      1.786100     0.412500     0.000000
O      1.786100     1.237500     0.000000
O      2.500600     0.000000     0.000000