21
All-trans retinaldehyde
C      3.572400    -1.388500     0.000000
C      3.572400    -0.563500     0.000000
C      2.857900    -0.151000     0.000000
C      2.857900     0.674000     0.000000
C      3.572400     1.086500     0.000000
C      4.286800     0.674000     0.000000
C      4.286800    -0.151000     0.000000
C      2.032900     0.674000     0.000000
C      2.445400     1.388500     0.000000
C      2.143500    -0.563500     0.000000
C      1.429000    -0.151000     0.000000
C      0.714600    -0.563500     0.000000
C     -0.000100    -0.151000     0.000000
C     -0.714600    -0.563500     0.000000
C     -1.429000    -0.151000     0.000000
C     -2.143500    -0.563500     0.000000
C     -2.857900    -0.151000     0.000000
C     -3.572400    -0.563500     0.000000
O     -4.286800    -0.151000     0.000000
C     -2.143500    -1.388500     0.000000
C      0.714600    -1.388500     0.000000