14
Azobenzene (trans)
C     -2.500600    -1.031200     0.000000
C     -2.500600    -0.206200     0.000000
C     -1.786100     0.206200     0.000000
C     -1.071700    -0.206200     0.000000
C     -1.071700    -1.031200     0.000000
C     -1.786100    -1.443800     0.000000
N     -0.357200     0.206200     0.000000
N      0.357200    -0.206200     0.000000
C      1.071700     0.206200     0.000000
C      1.071700     1.031200     0.000000
C      1.786100     1.443800     0.000000
C      2.500600     1.031200     0.000000
C      2.500600     0.206200     0.000000
C      1.786100    -0.206200     0.000000