40
carotene (cis)
C      7.557100     1.182200     0.000000
C      6.842700     1.594700     0.000000
C      6.128200     1.182200     0.000000
C      5.413800     1.594700     0.000000
C      5.413800     2.419700     0.000000
C      6.128200     2.832200     0.000000
C      6.842700     2.419700     0.000000
C      5.001300     0.880300     0.000000
C      4.588800     1.594700     0.000000
C      6.128200     0.357200     0.000000
C      5.413800    -0.055300     0.000000
C      5.413800    -0.880300     0.000000
C      4.699300    -1.292800     0.000000
C      3.984900    -0.880300     0.000000
C      3.159900    -0.880300     0.000000
C      2.445400    -1.292800     0.000000
C      1.731000    -0.880300     0.000000
C      1.016500    -1.292800     0.000000
C      0.302100    -0.880300     0.000000
C     -0.412600    -1.292800     0.000000
C     -1.127100    -0.880300     0.000000
C     -1.127100    -0.055300     0.000000
C     -1.841500    -1.292800     0.000000
C     -2.556000    -0.880300     0.000000
C     -3.270400    -1.292800     0.000000
C     -3.984900    -0.880300     0.000000
C     -3.984900    -0.055300     0.000000
C     -4.699300    -1.292800     0.000000
C     -5.413800    -0.880300     0.000000
C     -6.128200    -1.292800     0.000000
C     -6.842700    -0.880300     0.000000
C     -6.842700    -0.055300     0.000000
C     -7.557100    -1.292800     0.000000
C     -7.557100    -2.117800     0.000000
C     -6.842700    -2.530300     0.000000
C     -6.128200    -2.117800     0.000000
C     -5.303200    -2.117800     0.000000
C     -5.715700    -2.832200     0.000000
C      2.445400    -2.117800     0.000000
C      6.128200    -1.292800     0.000000