40
carotene (trans)
C     -7.502000     1.031400     0.000000
C     -7.502000     0.206400     0.000000
C     -6.787600    -0.206100     0.000000
C     -6.787600    -1.031100     0.000000
C     -7.502000    -1.443600     0.000000
C     -8.216400    -1.031100     0.000000
C     -8.216400    -0.206100     0.000000
C     -5.962600    -1.031100     0.000000
C     -6.375100    -1.745800     0.000000
C     -6.073100     0.206400     0.000000
C     -5.358700    -0.206100     0.000000
C     -4.644200     0.206400     0.000000
C     -3.929800    -0.206100     0.000000
C     -3.215000     0.206400     0.000000
C     -2.500600    -0.206100     0.000000
C     -1.786100     0.206100     0.000000
C     -1.071700    -0.206400     0.000000
C     -0.357200     0.206100     0.000000
C      0.357200    -0.206400     0.000000
C      1.071700     0.206100     0.000000
C      1.786100    -0.206400     0.000000
C      1.786100    -1.031400     0.000000
C      2.500600     0.206100     0.000000
C      3.215000    -0.206400     0.000000
C      3.929500     0.206100     0.000000
C      4.643900    -0.206400     0.000000
C      4.643900    -1.031400     0.000000
C      5.358400     0.206100     0.000000
C      6.073100    -0.206400     0.000000
C      6.787500     0.206100     0.000000
C      7.502000    -0.206400     0.000000
C      7.502000    -1.031400     0.000000
C      8.216400     0.206100     0.000000
C      8.216400     1.031100     0.000000
C      7.502000     1.443600     0.000000
C      6.787500     1.031100     0.000000
C      5.962500     1.031100     0.000000
C      6.375000     1.745800     0.000000
C     -1.786100     1.031100     0.000000
C     -4.644200     1.031400     0.000000