20
Indigofera tinctoria (trans)
O     -0.642400    -1.452100     0.000000
C     -0.897300    -0.667300     0.000000
C     -1.682200    -0.412400     0.000000
C     -2.396600    -0.824900     0.000000
C     -3.111100    -0.412400     0.000000
C     -3.111100     0.412600     0.000000
C     -2.396600     0.825100     0.000000
C     -1.682200     0.412600     0.000000
S     -0.897300     0.667600     0.000000
C     -0.412500     0.000100     0.000000
C      0.412500     0.000100     0.000000
S      0.897300    -0.667300     0.000000
C      1.682200    -0.412400     0.000000
C      2.396600    -0.824900     0.000000
C      3.111100    -0.412400     0.000000
C      3.111100     0.412600     0.000000
C      2.396600     0.825100     0.000000
C      1.682200     0.412600     0.000000
C      0.897300     0.667600     0.000000
O      0.642400     1.452100     0.000000