20
Indigofera tinctoria (cis)
O     -0.642400    -1.138500     0.000000
C     -0.897300    -0.353900     0.000000
C     -1.682200    -0.099000     0.000000
C     -2.396600    -0.511500     0.000000
C     -3.111100    -0.099000     0.000000
C     -3.111100     0.726000     0.000000
C     -2.396600     1.138500     0.000000
C     -1.682200     0.726000     0.000000
S     -0.897300     0.980900     0.000000
C     -0.412500     0.313500     0.000000
C      0.412500     0.313500     0.000000
S      0.897300     0.980900     0.000000
C      1.682200     0.726000     0.000000
C      2.396600     1.138500     0.000000
C      3.111100     0.726000     0.000000
C      3.111100    -0.099000     0.000000
C      2.396600    -0.511500     0.000000
C      1.682200    -0.099000     0.000000
C      0.897300    -0.353900     0.000000
O      0.642400    -1.138500     0.000000