14
Stilbene (cis)
C     -1.786100     0.206200     0.000000
C     -1.786100     1.031200     0.000000
C     -1.071700     1.443800     0.000000
C     -0.357200     1.031200     0.000000
C     -0.357200     0.206200     0.000000
C     -1.071700    -0.206200     0.000000
C      0.357200     1.443800     0.000000
C      1.071700     1.031200     0.000000
C      1.071700     0.206200     0.000000
C      1.786100    -0.206200     0.000000
C      1.786100    -1.031200     0.000000
C      1.071700    -1.443800     0.000000
C      0.357200    -1.031200     0.000000
C      0.357200    -0.206200     0.000000